c "822352.clq"
p edge 120 464
e 1 5
e 1 6
e 1 7
e 1 13
e 1 52
e 1 64
e 1 86
e 1 105
e 1 115
e 2 5
e 2 6
e 2 14
e 2 22
e 2 30
e 2 42
e 2 48
e 2 70
e 2 96
e 2 106
e 2 120
e 3 5
e 3 6
e 3 7
e 3 8
e 3 9
e 3 10
e 3 13
e 3 14
e 3 15
e 3 17
e 3 25
e 3 27
e 3 28
e 3 29
e 3 30
e 3 53
e 3 73
e 3 79
e 3 90
e 3 99
e 3 101
e 3 116
e 4 5
e 4 20
e 4 102
e 4 106
e 5 6
e 5 7
e 5 8
e 5 9
e 5 10
e 5 11
e 5 12
e 5 13
e 5 14
e 5 15
e 5 17
e 5 19
e 5 20
e 5 21
e 5 22
e 5 23
e 5 26
e 5 27
e 5 30
e 5 32
e 5 35
e 5 36
e 5 38
e 5 41
e 5 44
e 5 45
e 5 46
e 5 48
e 5 49
e 5 50
e 5 54
e 5 56
e 5 59
e 5 62
e 5 63
e 5 65
e 5 66
e 5 68
e 5 71
e 5 75
e 5 77
e 5 83
e 5 84
e 5 85
e 5 89
e 5 90
e 5 92
e 5 93
e 5 94
e 5 100
e 5 108
e 5 112
e 5 114
e 6 7
e 6 8
e 6 9
e 6 10
e 6 11
e 6 15
e 6 16
e 6 18
e 6 19
e 6 22
e 6 23
e 6 24
e 6 29
e 6 35
e 6 39
e 6 45
e 6 47
e 6 49
e 6 61
e 6 62
e 6 64
e 6 68
e 6 71
e 6 75
e 6 87
e 6 97
e 7 8
e 7 9
e 7 11
e 7 12
e 7 15
e 7 16
e 7 18
e 7 31
e 7 32
e 7 44
e 7 52
e 7 53
e 7 55
e 7 65
e 7 74
e 7 94
e 7 104
e 7 112
e 7 117
e 8 10
e 8 11
e 8 12
e 8 17
e 8 19
e 8 21
e 8 34
e 8 37
e 8 42
e 8 56
e 8 61
e 8 109
e 8 113
e 8 118
e 9 18
e 9 24
e 9 28
e 9 45
e 9 49
e 9 70
e 9 91
e 9 95
e 9 104
e 9 109
e 10 12
e 10 19
e 10 24
e 10 29
e 10 38
e 10 57
e 10 80
e 10 88
e 10 101
e 10 107
e 10 111
e 11 30
e 11 40
e 11 51
e 11 63
e 11 76
e 11 95
e 11 96
e 11 107
e 11 110
e 12 13
e 12 17
e 12 25
e 12 31
e 12 33
e 12 36
e 12 37
e 12 38
e 12 65
e 12 69
e 12 72
e 12 78
e 12 83
e 12 108
e 13 14
e 13 16
e 13 25
e 13 36
e 13 40
e 13 43
e 13 49
e 13 86
e 13 109
e 14 16
e 14 33
e 14 34
e 14 41
e 14 46
e 14 50
e 14 55
e 14 56
e 14 66
e 14 77
e 14 84
e 14 86
e 14 119
e 15 18
e 15 20
e 15 21
e 15 41
e 15 43
e 15 50
e 15 54
e 15 61
e 15 62
e 15 64
e 15 87
e 15 94
e 15 97
e 15 100
e 15 103
e 15 104
e 15 105
e 15 114
e 16 48
e 16 56
e 16 58
e 16 78
e 16 86
e 16 102
e 16 116
e 17 20
e 17 22
e 17 28
e 17 29
e 17 39
e 17 57
e 17 61
e 17 74
e 18 21
e 18 23
e 18 26
e 18 28
e 18 32
e 18 33
e 18 34
e 18 35
e 18 39
e 18 69
e 18 72
e 18 83
e 18 99
e 18 118
e 19 23
e 19 25
e 19 27
e 19 35
e 19 39
e 19 50
e 19 58
e 19 111
e 20 38
e 20 42
e 20 46
e 20 55
e 20 60
e 20 74
e 20 75
e 20 89
e 20 92
e 20 119
e 20 120
e 21 97
e 21 115
e 22 24
e 22 36
e 22 46
e 22 54
e 22 70
e 22 100
e 22 110
e 22 118
e 23 26
e 23 37
e 23 52
e 23 72
e 23 81
e 23 87
e 23 88
e 23 108
e 24 31
e 24 37
e 24 41
e 24 64
e 24 82
e 25 26
e 25 27
e 25 34
e 25 45
e 25 47
e 25 52
e 25 55
e 25 57
e 25 58
e 25 66
e 25 68
e 25 71
e 25 74
e 25 111
e 25 116
e 26 33
e 26 60
e 26 63
e 26 114
e 27 31
e 27 59
e 27 93
e 27 98
e 28 42
e 28 43
e 28 44
e 28 60
e 28 106
e 30 51
e 31 32
e 31 40
e 31 57
e 31 59
e 31 70
e 32 48
e 32 51
e 32 87
e 33 53
e 33 71
e 33 88
e 33 96
e 33 105
e 33 107
e 34 66
e 34 69
e 34 84
e 34 108
e 35 40
e 35 82
e 35 119
e 36 47
e 36 53
e 36 79
e 36 85
e 36 95
e 36 97
e 37 43
e 37 81
e 37 85
e 38 44
e 38 47
e 38 51
e 38 68
e 38 72
e 39 73
e 39 111
e 40 117
e 42 67
e 42 76
e 42 93
e 44 114
e 45 117
e 46 58
e 46 92
e 46 98
e 46 110
e 47 113
e 48 59
e 48 76
e 48 79
e 49 67
e 49 82
e 50 99
e 52 73
e 52 91
e 52 119
e 53 54
e 53 90
e 54 60
e 54 63
e 54 65
e 54 84
e 54 90
e 54 118
e 54 120
e 56 75
e 56 92
e 56 107
e 57 67
e 57 69
e 57 81
e 57 104
e 58 76
e 58 78
e 58 82
e 58 102
e 58 113
e 59 62
e 59 89
e 59 93
e 59 117
e 60 102
e 60 112
e 61 67
e 61 73
e 61 80
e 61 101
e 66 81
e 66 103
e 67 85
e 67 101
e 67 113
e 69 115
e 70 77
e 70 79
e 71 112
e 73 96
e 74 77
e 74 88
e 74 89
e 75 78
e 76 98
e 76 120
e 77 83
e 78 80
e 78 105
e 78 109
e 79 80
e 80 91
e 81 100
e 88 91
e 89 110
e 91 95
e 93 94
e 97 98
e 98 99
e 98 103
e 100 103
e 102 106
e 110 115
e 111 116
